Version identifier: 22.1.0.0 | 2022-03-09 | 1a383f8ce
CPXPARAM_Threads                                 1
CPXPARAM_MIP_Strategy_VariableSelect             3
CPXPARAM_TimeLimit                               599.992681812
Tried aggregator 1 time.
MIP Presolve eliminated 16 rows and 0 columns.
MIP Presolve modified 5 coefficients.
Reduced MIP has 1809 rows, 7500 columns, and 104578 nonzeros.
Reduced MIP has 7500 binaries, 0 generals, 0 SOSs, and 0 indicators.
Presolve time = 0.05 sec. (38.92 ticks)
Probing time = 0.01 sec. (4.16 ticks)
Tried aggregator 1 time.
Detecting symmetries...
Reduced MIP has 1809 rows, 7500 columns, and 104578 nonzeros.
Reduced MIP has 7500 binaries, 0 generals, 0 SOSs, and 0 indicators.
Presolve time = 0.06 sec. (50.20 ticks)
Probing time = 0.01 sec. (4.16 ticks)
Clique table members: 300.
MIP emphasis: balance optimality and feasibility.
MIP search method: dynamic search.
Parallel mode: none, using 1 thread.
Root relaxation solution time = 0.12 sec. (115.71 ticks)

        Nodes                                         Cuts/
   Node  Left     Objective  IInf  Best Integer    Best Bound    ItCnt     Gap

      0     0        0.0000   352                      0.0000     1007         
*     0+    0                            0.0000        0.0000             0.00%
      0     0        cutoff              0.0000        0.0000     1007    0.00%
Elapsed time = 1.02 sec. (852.39 ticks, tree = 0.01 MB, solutions = 1)

Root node processing (before b&c):
  Real time             =    1.02 sec. (852.62 ticks)
Sequential b&c:
  Real time             =    0.00 sec. (0.00 ticks)
                          ------------
Total (root+branch&cut) =    1.02 sec. (852.62 ticks)
Primal:	300
Dual:	300
Status:	Optimal
Time:	1.07689
Sequence:
	2
	2
	21
	2
	17
	15
	10
	12
	9
	10
	5
	19
	12
	9
	10
	9
	10
	12
	15
	20
	11
	5
	23
	3
	5
	21
	9
	8
	7
	7
	6
	17
	7
	11
	6
	13
	18
	17
	16
	3
	23
	24
	2
	13
	7
	17
	21
	17
	4
	21
	9
	24
	17
	10
	8
	24
	12
	8
	11
	22
	1
	4
	20
	24
	14
	11
	15
	22
	21
	11
	20
	15
	0
	16
	9
	6
	19
	0
	24
	2
	16
	14
	18
	19
	23
	6
	18
	21
	11
	20
	19
	21
	23
	14
	15
	16
	23
	2
	4
	23
	6
	17
	20
	5
	3
	23
	2
	19
	12
	16
	8
	1
	3
	0
	23
	9
	20
	12
	4
	1
	6
	19
	15
	18
	0
	14
	23
	7
	14
	11
	15
	16
	14
	18
	1
	2
	19
	18
	0
	6
	19
	17
	16
	1
	11
	3
	21
	0
	17
	14
	5
	5
	14
	17
	22
	24
	13
	16
	23
	3
	12
	1
	8
	22
	16
	3
	0
	21
	15
	8
	12
	17
	5
	7
	6
	8
	0
	3
	1
	14
	4
	21
	6
	10
	16
	4
	11
	12
	21
	19
	8
	4
	21
	24
	4
	1
	9
	1
	16
	4
	5
	11
	23
	0
	11
	2
	20
	19
	17
	0
	6
	21
	1
	6
	18
	4
	24
	0
	14
	1
	17
	20
	20
	2
	16
	11
	1
	15
	21
	24
	8
	12
	22
	3
	16
	12
	8
	18
	17
	1
	13
	7
	5
	9
	8
	6
	12
	20
	11
	15
	10
	24
	6
	7
	0
	14
	1
	5
	9
	20
	15
	0
	24
	14
	22
	11
	0
	4
	23
	9
	1
	3
	10
	1
	15
	11
	4
	6
	11
	18
	16
	2
	9
	7
	9
	0
	19
	24
	24
	13
	23
	8
	9
	10
	17
	1
	11
	19
	20
	2
